NAME: rbg048a.sop
TYPE: SOP
COMMENT: Stacker crane application (Norbert Ascheuer)
DIMENSION: 50
EDGE_WEIGHT_TYPE: EXPLICIT
EDGE_WEIGHT_FORMAT: FULL_MATRIX 
EDGE_WEIGHT_SECTION
50
    0    0    0    0    0    0    0    0    0    0    0    0    0    0    0    0    0    0    0    0    0    0    0    0    0    0    0    0    0    0    0    0    0    0    0    0    0    0    0    0    0    0    0    0    0    0    0    0    0 1000000
   -1    0   33    0   23   23    0    0    0   11   24   18   25   23   25   24   16   15   15   23   18   18   16   29   16   11   18   23   10   25   24   31   20   25   25   16   27    0    0   24    0   11    0    0   10   24    0   14   14    0
   -1   -1    0   33   25   25   33   33   33   31   23   27   23   25   23   23   28   28   28   25   27   27   28   14   28   31   27   24   31   23   23   10   27   23   23   28   18   33   33   24   33   31   33   33   31   23   33   31   29    0
   -1   -1   31    0   20   20   12   12   12   10   23   14   24   18   24   23   12   12   12   20   14   14   12   27   12   10   14   21   11   24   23   30   15   24   24   12   25   12   12   23   12   10   12   12   11   23   12   11   11    0
   -1   -1   10   33    0   25   33   33   33   31   23   27   23   25   23   23   28   28   28   25   27   27   28   14   28   31   27   24   31   23   23   10   27   23   23   28   18   33   33   24   33   31   33   33   31   23   33   31   29    0
   -1   -1   10   33   25    0   33   33   33   31   23   27   23   25   23   23   28   28   28   25   27   27   28   14   28   31   27   24   31   23   23   10   27   23   23   28   18   33   33   24   33   31   33   33   31   23   33   31   29    0
   -1   -1   -1   25   15   15    0   25   25   24   11   21   10   16   10   11   23   23   23   15   21   21   23   15   23   24   21   14   25   10   11   21   20   10   10   23   12   25   25   12   25   24   25   25   25   11   25   25   23    0
   -1   -1   -1   -1   -1   -1   14    0   14   15   24   16   24   21   24   24   15   14   14   23   16   16   15   28   15   15   16   23   15   24   24   31   18   24   24   15   27   14   14   24   14   15   14   14   15   24   14    0   12    0
   -1   -1   -1   -1   -1   -1   23   23    0   21   12   12   14   10   14   12   14   15   15    4   12   12   14   23   14   21   12   10   23   14   12   24   12   14   14   14   20   23   23   12   23   21   23   23   23   12   23   23   16    0
   -1   10   33    0   23   23    0    0    0    0   24   18   25   23   25   24   16   15   15   23   18   18   16   29   16   11   18   23   10   25   24   31   20   25   25   16   27    0    0   24    0   11    0    0   10   24    0   14   14    0
   -1   -1   28   15   15   15   15   15   15   12    0   11   23   14   23   21   10   13    4   15   11   11   10   25   11   12   11   16   14   23   21   28   12   23   23   10   24   15   15   20   15   12   15   15   14   21   15   14   13    0
   -1   -1   27   18   12   12   18   18   18   15   18    0   20   12   20   19   10   13   11   12    6    4   10   24   11   15    7   14   16   20   18   27   10   20   20   10   23   18   18   16   18   15   18   18   16   18   18   16   13    0
   -1   -1   23   25   14   14   25   25   25   24   10   20    0   15    6   21   21   23   23   14   20   20   21   16   21   24   20   12   24    5   18   23   18    6   12   21   12   25   25   11   25   24   25   25   24   15   25   24   23    0
   -1   -1   25   23   10   14   23   23   23   20   14   12   15    0   15   21   12   15   14   10   12   12   12   23   12   20   12   11   21   15   18   25   11   15   15   12   21   23   23   12   23   20   23   23   21   15   23   21   15    0
   -1   -1   23   25   14   14   25   25   25   24   10   20    7   15    0   19   21   23   23   14   20   20   21   16   21   24   20   12   24    4   16   23   18    5   11   21   12   25   25   11   25   24   25   25   24   13   25   24   23    0
   -1   -1   23   25   14   14   25   25   25   24   10   20    6   15    3    0   21   23   23   14   20   20   21   16   21   24   20   12   24    2   15   23   18    3    9   21   12   25   25   11   25   24   25   25   24   12   25   24   23    0
   -1   -1   33    0   23   23    0    0    0   11   24   18   25   23   25   24    0   15   15   23   18   18   16   29   16   11   18   23   10   25   24   31   20   25   25   16   27    0    0   24    0   11    0    0   10   24    0   14   14    0
   -1   -1   28   16   14   14   16   16   16   14   20   11   21   12   21   21    0    0   10   14   10   10    5   25   12   14   10   15   15   21   20   27   11   21   21    9   24   16   16   18   16   14   16   16   15   20   16   15   15    0
   -1   -1   27   18   12   12   18   18   18   15   18    8   20   12   20   18   10   12    0   12    5    2   10   24   10   15    6   14   16   20   18   27   10   20   20   10   23   18   18   16   18   15   18   18   16   18   18   16   12    0
   -1   -1   25   23   10   14   23   23   23   20   14   12   15   10   15   21   12   15   14    0   12   12   12   23   12   20   12   11   21   15   18   25   11   15   15   12   21   23   23   12   23   20   23   23   21   15   23   21   15    0
   -1   -1   25   23   10   14   23   23   23   20   14   12   15   10   15   21   12   15   14   10    0   12   12   23   12   20   12   11   21   15   18   25   11   15   15   12   21   23   23   12   23   20   23   23   21   15   23   21   15    0
   -1   -1   25   23   10   14   23   23   23   20   14   12   15   10   15   21   12   15   14   10   12    0   12   23   12   20   12   11   21   15   18   25   11   15   15   12   21   23   23   12   23   20   23   23   21   15   23   21   15    0
   -1   -1   25   23   10   14   23   23   23   20   14   12   15   10   15   21   12   15   14   10   12   12    0   23   12   20   12   11   21   15   18   25   11   15   15   12   21   23   23   12   23   20   23   23   21   15   23   21   15    0
   -1   -1   33    0   23   23    0    0    0   11   24   18   25   23   25   24   16   15   15   23   18   18   16    0   16   11   18   23   10   25   24   31   20   25   25   16   27    0    0   24    0   11    0    0   10   24    0   14   14    0
   -1   -1   27   18   12   14   18   18   18   15   18   11   20   12   20   21   10   15   11   12    8    5   10   24    0   15    9   14   16   20   18   27   10   20   20   10   23   18   18   16   18   15   18   18   16   18   18   16   15    0
   -1   -1   33    0   23   23    0    0    0   11   24   18   25   23   25   24   16   15   15   23   18   18   16   29   16    0   18   23   10   25   24   31   20   25   25   16   27    0    0   24    0   11    0    0   10   24    0   14   14    0
   -1   -1   28   16   14   14   16   16   16   14   20   11   21   12   21   21    0   15   10   14   10   10    5   25   12   14    0   15   15   21   20   27   11   21   21    9   24   16   16   18   16   14   16   16   15   20   16   15   15    0
   -1   -1   27   18   12   12   18   18   18   15   18   10   20   12   20   19   10   13   11   12    6    4   10   24   11   15    7    0   16   20   18   27   10   20   20   10   23   18   18   16   18   15   18   18   16   18   18   16   13    0
   -1   -1   33    0   23   23    0    0    0   11   24   18   25   23   25   24   16   15   15   23   18   18   16   29   16   11   18   23    0   25   24   31   20   25   25   16   27    0    0   24    0   11    0    0   10   24    0   14   14    0
   -1   -1   23   25   14   14   25   25   25   24   10   20    6   15    3   18   21   23   23   14   20   20   21   16   21   24   20   12   24    0   15   23   18    3    9   21   12   25   25   11   25   24   25   25   24   12   25   24   23    0
   -1   -1   25   23   10   14   23   23   23   20   14   12   15   10   15   21   12   15   14   10   12   12   12   23   12   20   12   11   21   15    0   25   11   15   15   12   21   23   23   12   23   20   23   23   21   15   23   21   15    0
   -1   -1   33    0   23   23    0    0    0   11   24   18   25   23   25   24   16   15   15   23   18   18   16   29   16   11   18   23   10   25   24    0   20   25   25   16   27    0    0   24    0   11    0    0   10   24    0   14   14    0
   -1   -1   33    0   23   23    0    0    0   11   24   18   25   23   25   24   16   15   15   23   18   18   16   29   16   11   18   23   10   25   24   31    0   25   25   16   27    0    0   24    0   11    0    0   10   24    0   14   14    0
   -1   -1   23   25   14   14   25   25   25   24   10   20    6   15    3   18   21   23   23   14   20   20   21   16   21   24   20   12   24    2   15   23   18    0    9   21   12   25   25   11   25   24   25   25   24   12   25   24   23    0
   -1   -1   23   25   14   14   25   25   25   24   10   20    9   15    6   21   21   23   23   14   20   20   21   16   21   24   20   12   24    5   18   23   18    6    0   21   12   25   25   11   25   24   25   25   24   15   25   24   23    0
   -1   -1   -1   -1   -1   -1   -1   -1   -1   -1   -1   -1   -1   -1   -1   -1   -1   -1   -1   -1   -1   -1   -1   -1   12   20   12   11   21   15   18   25   11   15   15    0   21   23   23   12   23   20   23   23   21   15   23   21   15    0
   -1   -1   -1   -1   -1   -1   -1   -1   -1   -1   -1   -1   -1   -1   -1   -1   -1   -1   -1   -1   -1   -1   -1   -1   16   11   18   23   10   25   24   31   20   25   25   16    0    0    0   24    0   11    0    0   10   24    0   14   14    0
   -1   -1   -1   -1   -1   -1   -1   -1   -1   -1   -1   -1   -1   -1   -1   -1   -1   -1   -1   -1   -1   -1   -1   -1   -1   -1   -1   -1   -1   -1   -1   -1   -1   -1   -1   -1   14    0   24   10   24   24   24   24   24    5   24   24   23    0
   -1   -1   -1   -1   -1   -1   -1   -1   -1   -1   -1   -1   -1   -1   -1   -1   -1   -1   -1   -1   -1   -1   -1   -1   -1   -1   -1   -1   -1   -1   -1   -1   -1   -1   -1   -1   -1   28    0   16   28   27   28   28   27   15   28   27   25    0
   -1   -1   -1   -1   -1   -1   -1   -1   -1   -1   -1   -1   -1   -1   -1   -1   -1   -1   -1   -1   -1   -1   -1   -1   -1   -1   -1   -1   -1   -1   -1   -1   -1   -1   -1   -1   -1    0    0    0    0   11    0    0   10   24    0   14   14    0
   -1   -1   -1   -1   -1   -1   -1   -1   -1   -1   -1   -1   -1   -1   -1   -1   -1   -1   -1   -1   -1   -1   -1   -1   -1   -1   -1   -1   -1   -1   -1   -1   -1   -1   -1   -1   -1   28   28   18    0   27   28   28   28   16   28   28   25    0
   -1   -1   -1   -1   -1   -1   -1   -1   -1   -1   -1   -1   -1   -1   -1   -1   -1   -1   -1   -1   -1   -1   -1   -1   -1   -1   -1   -1   -1   -1   -1   -1   -1   -1   -1   -1   -1    0    0   24    0    0    0    0   10   24    0   14   14    0
   -1   -1   -1   -1   -1   -1   -1   -1   -1   -1   -1   -1   -1   -1   -1   -1   -1   -1   -1   -1   -1   -1   -1   -1   -1   -1   -1   -1   -1   -1   -1   -1   -1   -1   -1   -1   -1   27   27   15   27   26    0   27   27   14   27   27   24    0
   -1   -1   -1   -1   -1   -1   -1   -1   -1   -1   -1   -1   -1   -1   -1   -1   -1   -1   -1   -1   -1   -1   -1   -1   -1   -1   -1   -1   -1   -1   -1   -1   -1   -1   -1   -1   -1   29   29   20   29   28   29    0   28   18   29   28   26    0
   -1   -1   -1   -1   -1   -1   -1   -1   -1   -1   -1   -1   -1   -1   -1   -1   -1   -1   -1   -1   -1   -1   -1   -1   -1   -1   -1   -1   -1   -1   -1   -1   -1   -1   -1   -1   -1    0    0   24    0   11    0    0    0   24    0   14   14    0
   -1   -1   -1   -1   -1   -1   -1   -1   -1   -1   -1   -1   -1   -1   -1   -1   -1   -1   -1   -1   -1   -1   -1   -1   -1   -1   -1   -1   -1   -1   -1   -1   -1   -1   -1   -1   -1   15   15   20   15   12   15   15   14    0   15   15   15    0
   -1   -1   -1   -1   -1   -1   -1   -1   -1   -1   -1   -1   -1   -1   -1   -1   -1   -1   -1   -1   -1   -1   -1   -1   -1   -1   -1   -1   -1   -1   -1   -1   -1   -1   -1   -1   -1   -1   15   20   15   12   15   15   14   21    0   14   10    0
   -1    0   31   10   23   23   10   10   10   10   24   16   24   21   24   24   15   15   14   23   16   16   15   28   15   10   16   23    0   24   24   31   18   24   24   15   27   10   10   24   10   10   10   10    0   24   10    0   15    0
   -1   10   31   11   21   21   11   11   11    0   24   15   24   20   24   24   14   15   12   21   15   15   14   28   14    0   15   23   10   24   24   31   16   24   24   14   26   11   11   23   11    0   11   11   10   24   11   15    0    0
   -1   -1   -1   -1   -1   -1   -1   -1   -1   -1   -1   -1   -1   -1   -1   -1   -1   -1   -1   -1   -1   -1   -1   -1   -1   -1   -1   -1   -1   -1   -1   -1   -1   -1   -1   -1   -1   -1   -1   -1   -1   -1   -1   -1   -1   -1   -1   -1   -1    0
EOF
